(declare-const Bracket_1 Real)
(declare-const Bracket_2 Real)
(declare-const Bracket_3 Real)
(declare-const Bracket_4 Real)
(declare-const FinalTaxes Real)
(declare-const Income Real)

(assert (=> (<= Income 53255.0) (and (= Bracket_1 (* Income 0.14)) (= Bracket_2 0.0) (= Bracket_3 0.0) (= Bracket_4 0.0) (= FinalTaxes (+ Bracket_1 Bracket_2 Bracket_3 Bracket_4)))))
(assert (=> (and (> Income 53255.0) (<= Income 106495.0)) (and (= Bracket_1 (* 53255.0 0.14)) (= Bracket_2 (* (- Income 53255.0) 0.19)) (= Bracket_3 0.0) (= Bracket_4 0.0) (= FinalTaxes (+ Bracket_1 Bracket_2 Bracket_3 Bracket_4)))))
(assert (=> (and (> Income 106495.0) (<= Income 129590.0)) (and (= Bracket_1 (* 53255.0 0.14)) (= Bracket_2 (* (- 106495.0 53255.0) 0.19)) (= Bracket_3 (* (- Income 106495.0) 0.24)) (= Bracket_4 0.0) (= FinalTaxes (+ Bracket_1 Bracket_2 Bracket_3 Bracket_4)))))
(assert (=> (> Income 129590.0) (and (= Bracket_1 (* 53255.0 0.14)) (= Bracket_2 (* (- 106495.0 53255.0) 0.19)) (= Bracket_3 (* (- 129590.0 106495.0) 0.24)) (= Bracket_4 (* (- Income 129590.0) 0.2575)) (= FinalTaxes (+ Bracket_1 Bracket_2 Bracket_3 Bracket_4)))))
